27
Route #1: 1 11 
Route #2: 2 
Route #3: 3 14 
Route #4: 4 18 
Route #5: 5 
Route #6: 6 15 
Route #7: 7 20 
Route #8: 8 
Route #9: 9 26 
Route #10: 10 28 
Route #11: 12 27 
Route #12: 13 29 
Route #13: 16 23 33 
Route #14: 17 22 
Route #15: 19 25 31 
Route #16: 21 32 35 
Route #17: 24 34 
Route #18: 30 36 
Route #19: 37 44 
Route #20: 38 46 
Route #21: 39 41 
Route #22: 40 47 50 
Route #23: 42 
Route #24: 43 
Route #25: 45 
Route #26: 48 
Route #27: 49 
Cost 27.0
